# Solution for model CG_Integer_Master
# Objective value = 269.001
lam_0_0 0
lam_0_1 0
lam_0_10 0
lam_0_100 0
lam_0_101 0
lam_0_102 0
lam_0_103 0
lam_0_104 0
lam_0_105 0
lam_0_106 0
lam_0_107 0
lam_0_108 0
lam_0_109 0
lam_0_11 0
lam_0_110 0
lam_0_111 0
lam_0_112 0
lam_0_113 0
lam_0_114 0
lam_0_115 0
lam_0_116 0
lam_0_117 0
lam_0_118 0
lam_0_119 0
lam_0_12 0
lam_0_120 0
lam_0_121 0
lam_0_122 0
lam_0_123 0
lam_0_124 0
lam_0_125 0
lam_0_126 0
lam_0_127 0
lam_0_128 0
lam_0_129 0
lam_0_13 0
lam_0_130 0
lam_0_131 0
lam_0_132 0
lam_0_133 0
lam_0_134 0
lam_0_135 0
lam_0_136 0
lam_0_137 0
lam_0_138 0
lam_0_139 0
lam_0_14 0
lam_0_140 0
lam_0_141 0
lam_0_142 0
lam_0_143 0
lam_0_144 0
lam_0_145 0
lam_0_146 0
lam_0_147 0
lam_0_148 0
lam_0_149 0
lam_0_15 0
lam_0_150 0
lam_0_151 0
lam_0_152 0
lam_0_153 0
lam_0_154 0
lam_0_155 0
lam_0_156 0
lam_0_157 0
lam_0_158 0
lam_0_159 0
lam_0_16 0
lam_0_160 0
lam_0_161 0
lam_0_162 0
lam_0_163 0
lam_0_164 0
lam_0_165 0
lam_0_166 0
lam_0_167 0
lam_0_168 0
lam_0_169 0
lam_0_17 0
lam_0_170 0
lam_0_171 0
lam_0_172 1
lam_0_173 0
lam_0_174 0
lam_0_175 0
lam_0_176 0
lam_0_177 0
lam_0_178 0
lam_0_179 0
lam_0_18 0
lam_0_180 0
lam_0_181 0
lam_0_182 0
lam_0_183 0
lam_0_184 0
lam_0_185 0
lam_0_186 0
lam_0_187 0
lam_0_188 0
lam_0_189 0
lam_0_19 0
lam_0_190 0
lam_0_191 0
lam_0_192 0
lam_0_193 0
lam_0_194 0
lam_0_195 0
lam_0_196 0
lam_0_197 0
lam_0_198 0
lam_0_199 0
lam_0_2 0
lam_0_20 0
lam_0_200 0
lam_0_201 0
lam_0_202 0
lam_0_203 0
lam_0_204 0
lam_0_205 0
lam_0_21 0
lam_0_22 0
lam_0_23 0
lam_0_24 0
lam_0_25 0
lam_0_26 0
lam_0_27 0
lam_0_28 0
lam_0_29 0
lam_0_3 0
lam_0_30 0
lam_0_31 0
lam_0_32 0
lam_0_33 0
lam_0_34 0
lam_0_35 0
lam_0_36 0
lam_0_37 0
lam_0_38 0
lam_0_39 0
lam_0_4 0
lam_0_40 0
lam_0_41 0
lam_0_42 0
lam_0_43 0
lam_0_44 0
lam_0_45 0
lam_0_46 0
lam_0_47 0
lam_0_48 0
lam_0_49 0
lam_0_5 0
lam_0_50 0
lam_0_51 0
lam_0_52 0
lam_0_53 0
lam_0_54 0
lam_0_55 0
lam_0_56 0
lam_0_57 0
lam_0_58 0
lam_0_59 0
lam_0_6 0
lam_0_60 0
lam_0_61 0
lam_0_62 0
lam_0_63 0
lam_0_64 0
lam_0_65 0
lam_0_66 0
lam_0_67 0
lam_0_68 0
lam_0_69 0
lam_0_7 0
lam_0_70 0
lam_0_71 0
lam_0_72 0
lam_0_73 0
lam_0_74 0
lam_0_75 0
lam_0_76 0
lam_0_77 0
lam_0_78 0
lam_0_79 0
lam_0_8 0
lam_0_80 0
lam_0_81 0
lam_0_82 0
lam_0_83 0
lam_0_84 0
lam_0_85 0
lam_0_86 0
lam_0_87 0
lam_0_88 0
lam_0_89 0
lam_0_9 0
lam_0_90 0
lam_0_91 0
lam_0_92 0
lam_0_93 0
lam_0_94 0
lam_0_95 0
lam_0_96 0
lam_0_97 0
lam_0_98 0
lam_0_99 0
lam_1_0 0
lam_1_1 0
lam_1_10 0
lam_1_100 0
lam_1_101 0
lam_1_102 0
lam_1_103 0
lam_1_104 0
lam_1_105 0
lam_1_106 0
lam_1_107 0
lam_1_108 0
lam_1_109 0
lam_1_11 0
lam_1_110 0
lam_1_111 0
lam_1_112 1
lam_1_113 0
lam_1_114 0
lam_1_115 0
lam_1_116 0
lam_1_117 0
lam_1_118 0
lam_1_119 0
lam_1_12 0
lam_1_120 0
lam_1_121 0
lam_1_122 0
lam_1_123 0
lam_1_124 0
lam_1_125 0
lam_1_126 0
lam_1_127 0
lam_1_128 0
lam_1_129 0
lam_1_13 0
lam_1_130 0
lam_1_131 0
lam_1_132 0
lam_1_133 0
lam_1_134 0
lam_1_135 0
lam_1_136 0
lam_1_137 0
lam_1_138 0
lam_1_139 0
lam_1_14 0
lam_1_140 0
lam_1_141 0
lam_1_142 0
lam_1_143 0
lam_1_144 0
lam_1_145 0
lam_1_146 0
lam_1_147 0
lam_1_148 0
lam_1_149 0
lam_1_15 0
lam_1_150 0
lam_1_151 0
lam_1_152 0
lam_1_153 0
lam_1_154 0
lam_1_155 0
lam_1_156 0
lam_1_157 0
lam_1_158 0
lam_1_159 0
lam_1_16 0
lam_1_160 0
lam_1_161 0
lam_1_162 0
lam_1_163 0
lam_1_164 0
lam_1_165 0
lam_1_166 0
lam_1_167 0
lam_1_168 0
lam_1_169 0
lam_1_17 0
lam_1_170 0
lam_1_171 0
lam_1_172 0
lam_1_173 0
lam_1_174 0
lam_1_175 0
lam_1_176 0
lam_1_177 0
lam_1_178 0
lam_1_179 0
lam_1_18 0
lam_1_180 0
lam_1_181 0
lam_1_182 0
lam_1_183 0
lam_1_184 0
lam_1_185 0
lam_1_186 0
lam_1_187 0
lam_1_188 0
lam_1_189 0
lam_1_19 0
lam_1_190 0
lam_1_191 0
lam_1_192 0
lam_1_193 0
lam_1_194 0
lam_1_195 0
lam_1_196 0
lam_1_197 0
lam_1_198 0
lam_1_199 0
lam_1_2 0
lam_1_20 0
lam_1_200 0
lam_1_21 0
lam_1_22 0
lam_1_23 0
lam_1_24 0
lam_1_25 0
lam_1_26 0
lam_1_27 0
lam_1_28 0
lam_1_29 0
lam_1_3 0
lam_1_30 0
lam_1_31 0
lam_1_32 0
lam_1_33 0
lam_1_34 0
lam_1_35 0
lam_1_36 0
lam_1_37 0
lam_1_38 0
lam_1_39 0
lam_1_4 0
lam_1_40 0
lam_1_41 0
lam_1_42 0
lam_1_43 0
lam_1_44 0
lam_1_45 0
lam_1_46 0
lam_1_47 0
lam_1_48 0
lam_1_49 0
lam_1_5 0
lam_1_50 0
lam_1_51 0
lam_1_52 0
lam_1_53 0
lam_1_54 0
lam_1_55 0
lam_1_56 0
lam_1_57 0
lam_1_58 0
lam_1_59 0
lam_1_6 0
lam_1_60 0
lam_1_61 0
lam_1_62 0
lam_1_63 0
lam_1_64 0
lam_1_65 0
lam_1_66 0
lam_1_67 0
lam_1_68 0
lam_1_69 0
lam_1_7 0
lam_1_70 0
lam_1_71 0
lam_1_72 0
lam_1_73 0
lam_1_74 0
lam_1_75 0
lam_1_76 0
lam_1_77 0
lam_1_78 0
lam_1_79 0
lam_1_8 0
lam_1_80 0
lam_1_81 0
lam_1_82 0
lam_1_83 0
lam_1_84 0
lam_1_85 0
lam_1_86 0
lam_1_87 0
lam_1_88 0
lam_1_89 0
lam_1_9 0
lam_1_90 0
lam_1_91 0
lam_1_92 0
lam_1_93 0
lam_1_94 0
lam_1_95 0
lam_1_96 0
lam_1_97 0
lam_1_98 0
lam_1_99 0
lam_2_0 0
lam_2_1 0
lam_2_10 0
lam_2_100 0
lam_2_101 0
lam_2_102 0
lam_2_103 0
lam_2_104 0
lam_2_105 0
lam_2_106 0
lam_2_107 0
lam_2_108 0
lam_2_109 0
lam_2_11 0
lam_2_110 0
lam_2_111 0
lam_2_112 0
lam_2_113 0
lam_2_114 0
lam_2_115 0
lam_2_116 0
lam_2_117 0
lam_2_118 0
lam_2_119 0
lam_2_12 0
lam_2_120 0
lam_2_121 0
lam_2_122 0
lam_2_123 0
lam_2_124 0
lam_2_125 0
lam_2_126 0
lam_2_127 0
lam_2_128 0
lam_2_129 0
lam_2_13 0
lam_2_130 0
lam_2_131 0
lam_2_132 0
lam_2_133 0
lam_2_134 0
lam_2_135 0
lam_2_136 0
lam_2_137 0
lam_2_138 0
lam_2_139 0
lam_2_14 0
lam_2_140 0
lam_2_141 0
lam_2_142 0
lam_2_143 0
lam_2_144 0
lam_2_145 0
lam_2_146 0
lam_2_147 0
lam_2_148 0
lam_2_149 0
lam_2_15 0
lam_2_150 0
lam_2_151 0
lam_2_152 0
lam_2_153 0
lam_2_154 0
lam_2_155 0
lam_2_156 0
lam_2_157 0
lam_2_158 0
lam_2_159 0
lam_2_16 0
lam_2_160 0
lam_2_161 0
lam_2_162 0
lam_2_163 0
lam_2_164 0
lam_2_165 0
lam_2_166 0
lam_2_167 0
lam_2_168 0
lam_2_169 0
lam_2_17 0
lam_2_170 0
lam_2_171 0
lam_2_172 0
lam_2_173 0
lam_2_174 0
lam_2_175 0
lam_2_176 0
lam_2_177 0
lam_2_178 0
lam_2_179 0
lam_2_18 0
lam_2_180 0
lam_2_181 0
lam_2_182 0
lam_2_183 0
lam_2_184 0
lam_2_185 0
lam_2_186 0
lam_2_187 0
lam_2_188 0
lam_2_189 0
lam_2_19 0
lam_2_190 0
lam_2_191 0
lam_2_192 0
lam_2_193 0
lam_2_194 0
lam_2_195 0
lam_2_196 0
lam_2_197 0
lam_2_198 0
lam_2_199 0
lam_2_2 0
lam_2_20 0
lam_2_200 0
lam_2_201 0
lam_2_202 0
lam_2_203 0
lam_2_204 1
lam_2_205 0
lam_2_21 0
lam_2_22 0
lam_2_23 0
lam_2_24 0
lam_2_25 0
lam_2_26 0
lam_2_27 0
lam_2_28 0
lam_2_29 0
lam_2_3 0
lam_2_30 0
lam_2_31 0
lam_2_32 0
lam_2_33 0
lam_2_34 0
lam_2_35 0
lam_2_36 0
lam_2_37 0
lam_2_38 0
lam_2_39 0
lam_2_4 0
lam_2_40 0
lam_2_41 0
lam_2_42 0
lam_2_43 0
lam_2_44 0
lam_2_45 0
lam_2_46 0
lam_2_47 0
lam_2_48 0
lam_2_49 0
lam_2_5 0
lam_2_50 0
lam_2_51 0
lam_2_52 0
lam_2_53 0
lam_2_54 0
lam_2_55 0
lam_2_56 0
lam_2_57 0
lam_2_58 0
lam_2_59 0
lam_2_6 0
lam_2_60 0
lam_2_61 0
lam_2_62 0
lam_2_63 0
lam_2_64 0
lam_2_65 0
lam_2_66 0
lam_2_67 0
lam_2_68 0
lam_2_69 0
lam_2_7 0
lam_2_70 0
lam_2_71 0
lam_2_72 0
lam_2_73 0
lam_2_74 0
lam_2_75 0
lam_2_76 0
lam_2_77 0
lam_2_78 0
lam_2_79 0
lam_2_8 0
lam_2_80 0
lam_2_81 0
lam_2_82 0
lam_2_83 0
lam_2_84 0
lam_2_85 0
lam_2_86 0
lam_2_87 0
lam_2_88 0
lam_2_89 0
lam_2_9 0
lam_2_90 0
lam_2_91 0
lam_2_92 0
lam_2_93 0
lam_2_94 0
lam_2_95 0
lam_2_96 0
lam_2_97 0
lam_2_98 0
lam_2_99 0
lam_3_0 0
lam_3_1 0
lam_3_10 0
lam_3_100 0
lam_3_101 0
lam_3_102 0
lam_3_103 0
lam_3_104 0
lam_3_105 0
lam_3_106 0
lam_3_107 0
lam_3_108 0
lam_3_109 0
lam_3_11 0
lam_3_110 0
lam_3_111 0
lam_3_112 0
lam_3_113 0
lam_3_114 0
lam_3_115 0
lam_3_116 0
lam_3_117 0
lam_3_118 0
lam_3_119 0
lam_3_12 0
lam_3_120 0
lam_3_121 0
lam_3_122 0
lam_3_123 0
lam_3_124 0
lam_3_125 0
lam_3_126 0
lam_3_127 0
lam_3_128 0
lam_3_129 0
lam_3_13 0
lam_3_130 0
lam_3_131 0
lam_3_132 0
lam_3_133 0
lam_3_134 0
lam_3_135 0
lam_3_136 0
lam_3_137 0
lam_3_138 0
lam_3_139 0
lam_3_14 0
lam_3_140 0
lam_3_141 0
lam_3_142 0
lam_3_143 0
lam_3_144 0
lam_3_145 0
lam_3_146 0
lam_3_147 0
lam_3_148 0
lam_3_149 0
lam_3_15 0
lam_3_150 0
lam_3_151 0
lam_3_152 0
lam_3_153 0
lam_3_154 0
lam_3_155 0
lam_3_156 0
lam_3_157 0
lam_3_158 0
lam_3_159 0
lam_3_16 0
lam_3_160 0
lam_3_161 0
lam_3_162 0
lam_3_163 0
lam_3_164 0
lam_3_165 0
lam_3_166 0
lam_3_167 0
lam_3_168 0
lam_3_169 0
lam_3_17 0
lam_3_170 0
lam_3_171 0
lam_3_172 0
lam_3_173 0
lam_3_174 0
lam_3_175 0
lam_3_176 0
lam_3_177 0
lam_3_178 0
lam_3_179 0
lam_3_18 0
lam_3_180 0
lam_3_181 0
lam_3_182 0
lam_3_183 0
lam_3_184 1
lam_3_185 0
lam_3_186 0
lam_3_187 0
lam_3_188 0
lam_3_189 0
lam_3_19 0
lam_3_190 0
lam_3_191 0
lam_3_192 0
lam_3_193 0
lam_3_194 0
lam_3_195 0
lam_3_196 0
lam_3_197 0
lam_3_198 0
lam_3_199 0
lam_3_2 0
lam_3_20 0
lam_3_200 0
lam_3_21 0
lam_3_22 0
lam_3_23 0
lam_3_24 0
lam_3_25 0
lam_3_26 0
lam_3_27 0
lam_3_28 0
lam_3_29 0
lam_3_3 0
lam_3_30 0
lam_3_31 0
lam_3_32 0
lam_3_33 0
lam_3_34 0
lam_3_35 0
lam_3_36 0
lam_3_37 0
lam_3_38 0
lam_3_39 0
lam_3_4 0
lam_3_40 0
lam_3_41 0
lam_3_42 0
lam_3_43 0
lam_3_44 0
lam_3_45 0
lam_3_46 0
lam_3_47 0
lam_3_48 0
lam_3_49 0
lam_3_5 0
lam_3_50 0
lam_3_51 0
lam_3_52 0
lam_3_53 0
lam_3_54 0
lam_3_55 0
lam_3_56 0
lam_3_57 0
lam_3_58 0
lam_3_59 0
lam_3_6 0
lam_3_60 0
lam_3_61 0
lam_3_62 0
lam_3_63 0
lam_3_64 0
lam_3_65 0
lam_3_66 0
lam_3_67 0
lam_3_68 0
lam_3_69 0
lam_3_7 0
lam_3_70 0
lam_3_71 0
lam_3_72 0
lam_3_73 0
lam_3_74 0
lam_3_75 0
lam_3_76 0
lam_3_77 0
lam_3_78 0
lam_3_79 0
lam_3_8 0
lam_3_80 0
lam_3_81 0
lam_3_82 0
lam_3_83 0
lam_3_84 0
lam_3_85 0
lam_3_86 0
lam_3_87 0
lam_3_88 0
lam_3_89 0
lam_3_9 0
lam_3_90 0
lam_3_91 0
lam_3_92 0
lam_3_93 0
lam_3_94 0
lam_3_95 0
lam_3_96 0
lam_3_97 0
lam_3_98 0
lam_3_99 0
lam_4_0 0
lam_4_1 0
lam_4_10 0
lam_4_100 0
lam_4_101 0
lam_4_102 0
lam_4_103 0
lam_4_104 0
lam_4_105 0
lam_4_106 0
lam_4_107 0
lam_4_108 0
lam_4_109 0
lam_4_11 0
lam_4_110 0
lam_4_111 0
lam_4_112 0
lam_4_113 0
lam_4_114 0
lam_4_115 0
lam_4_116 0
lam_4_117 0
lam_4_118 0
lam_4_119 0
lam_4_12 0
lam_4_120 0
lam_4_121 0
lam_4_122 0
lam_4_123 0
lam_4_124 0
lam_4_125 0
lam_4_126 0
lam_4_127 0
lam_4_128 0
lam_4_129 0
lam_4_13 0
lam_4_130 0
lam_4_131 0
lam_4_132 0
lam_4_133 0
lam_4_134 0
lam_4_135 0
lam_4_136 0
lam_4_137 0
lam_4_138 0
lam_4_139 0
lam_4_14 0
lam_4_140 0
lam_4_141 0
lam_4_142 0
lam_4_143 0
lam_4_144 0
lam_4_145 0
lam_4_146 0
lam_4_147 0
lam_4_148 0
lam_4_149 0
lam_4_15 0
lam_4_150 0
lam_4_151 0
lam_4_152 0
lam_4_153 0
lam_4_154 0
lam_4_155 0
lam_4_156 1
lam_4_157 0
lam_4_158 0
lam_4_159 0
lam_4_16 0
lam_4_160 0
lam_4_161 0
lam_4_162 0
lam_4_163 0
lam_4_164 0
lam_4_165 0
lam_4_166 0
lam_4_167 0
lam_4_168 0
lam_4_169 0
lam_4_17 0
lam_4_170 0
lam_4_171 0
lam_4_172 0
lam_4_173 0
lam_4_174 0
lam_4_175 0
lam_4_176 0
lam_4_177 0
lam_4_178 0
lam_4_179 0
lam_4_18 0
lam_4_180 0
lam_4_181 0
lam_4_182 0
lam_4_183 0
lam_4_184 0
lam_4_185 0
lam_4_186 0
lam_4_187 0
lam_4_188 0
lam_4_189 0
lam_4_19 0
lam_4_190 0
lam_4_191 0
lam_4_192 0
lam_4_193 0
lam_4_194 0
lam_4_195 0
lam_4_196 0
lam_4_197 0
lam_4_198 0
lam_4_199 0
lam_4_2 0
lam_4_20 0
lam_4_200 0
lam_4_201 0
lam_4_202 0
lam_4_203 0
lam_4_204 0
lam_4_205 0
lam_4_21 0
lam_4_22 0
lam_4_23 0
lam_4_24 0
lam_4_25 0
lam_4_26 0
lam_4_27 0
lam_4_28 0
lam_4_29 0
lam_4_3 0
lam_4_30 0
lam_4_31 0
lam_4_32 0
lam_4_33 0
lam_4_34 0
lam_4_35 0
lam_4_36 0
lam_4_37 0
lam_4_38 0
lam_4_39 0
lam_4_4 0
lam_4_40 0
lam_4_41 0
lam_4_42 0
lam_4_43 0
lam_4_44 0
lam_4_45 0
lam_4_46 0
lam_4_47 0
lam_4_48 0
lam_4_49 0
lam_4_5 0
lam_4_50 0
lam_4_51 0
lam_4_52 0
lam_4_53 0
lam_4_54 0
lam_4_55 0
lam_4_56 0
lam_4_57 0
lam_4_58 0
lam_4_59 0
lam_4_6 0
lam_4_60 0
lam_4_61 0
lam_4_62 0
lam_4_63 0
lam_4_64 0
lam_4_65 0
lam_4_66 0
lam_4_67 0
lam_4_68 0
lam_4_69 0
lam_4_7 0
lam_4_70 0
lam_4_71 0
lam_4_72 0
lam_4_73 0
lam_4_74 0
lam_4_75 0
lam_4_76 0
lam_4_77 0
lam_4_78 0
lam_4_79 0
lam_4_8 0
lam_4_80 0
lam_4_81 0
lam_4_82 0
lam_4_83 0
lam_4_84 0
lam_4_85 0
lam_4_86 0
lam_4_87 0
lam_4_88 0
lam_4_89 0
lam_4_9 0
lam_4_90 0
lam_4_91 0
lam_4_92 0
lam_4_93 0
lam_4_94 0
lam_4_95 0
lam_4_96 0
lam_4_97 0
lam_4_98 0
lam_4_99 0
lam_5_0 1
lam_5_1 0
lam_5_10 0
lam_5_100 0
lam_5_101 0
lam_5_102 0
lam_5_103 0
lam_5_104 0
lam_5_105 0
lam_5_106 0
lam_5_107 0
lam_5_108 0
lam_5_109 0
lam_5_11 0
lam_5_110 0
lam_5_111 0
lam_5_112 0
lam_5_113 0
lam_5_114 0
lam_5_115 0
lam_5_116 0
lam_5_117 0
lam_5_118 0
lam_5_119 0
lam_5_12 0
lam_5_120 0
lam_5_121 0
lam_5_122 0
lam_5_123 0
lam_5_124 0
lam_5_125 0
lam_5_126 0
lam_5_127 0
lam_5_128 0
lam_5_129 0
lam_5_13 0
lam_5_130 0
lam_5_131 0
lam_5_132 0
lam_5_133 0
lam_5_134 0
lam_5_135 0
lam_5_136 0
lam_5_137 0
lam_5_138 0
lam_5_139 0
lam_5_14 0
lam_5_140 0
lam_5_141 0
lam_5_142 0
lam_5_143 0
lam_5_144 0
lam_5_145 0
lam_5_146 0
lam_5_147 0
lam_5_148 0
lam_5_149 0
lam_5_15 0
lam_5_150 0
lam_5_151 0
lam_5_152 0
lam_5_153 0
lam_5_154 0
lam_5_155 0
lam_5_156 0
lam_5_157 0
lam_5_158 0
lam_5_159 0
lam_5_16 0
lam_5_160 0
lam_5_161 0
lam_5_162 0
lam_5_163 0
lam_5_164 0
lam_5_165 0
lam_5_166 0
lam_5_167 0
lam_5_168 0
lam_5_169 0
lam_5_17 0
lam_5_170 0
lam_5_171 0
lam_5_172 0
lam_5_173 0
lam_5_174 0
lam_5_175 0
lam_5_176 0
lam_5_177 0
lam_5_178 0
lam_5_179 0
lam_5_18 0
lam_5_180 0
lam_5_181 0
lam_5_182 0
lam_5_183 0
lam_5_184 0
lam_5_185 0
lam_5_186 0
lam_5_187 0
lam_5_188 0
lam_5_189 0
lam_5_19 0
lam_5_190 0
lam_5_191 0
lam_5_192 0
lam_5_193 0
lam_5_194 0
lam_5_195 0
lam_5_196 0
lam_5_197 0
lam_5_198 0
lam_5_199 0
lam_5_2 0
lam_5_20 0
lam_5_200 0
lam_5_21 0
lam_5_22 0
lam_5_23 0
lam_5_24 0
lam_5_25 0
lam_5_26 0
lam_5_27 0
lam_5_28 0
lam_5_29 0
lam_5_3 0
lam_5_30 0
lam_5_31 0
lam_5_32 0
lam_5_33 0
lam_5_34 0
lam_5_35 0
lam_5_36 0
lam_5_37 0
lam_5_38 0
lam_5_39 0
lam_5_4 0
lam_5_40 0
lam_5_41 0
lam_5_42 0
lam_5_43 0
lam_5_44 0
lam_5_45 0
lam_5_46 0
lam_5_47 0
lam_5_48 0
lam_5_49 0
lam_5_5 0
lam_5_50 0
lam_5_51 0
lam_5_52 0
lam_5_53 0
lam_5_54 0
lam_5_55 0
lam_5_56 0
lam_5_57 0
lam_5_58 0
lam_5_59 0
lam_5_6 0
lam_5_60 0
lam_5_61 0
lam_5_62 0
lam_5_63 0
lam_5_64 0
lam_5_65 0
lam_5_66 0
lam_5_67 0
lam_5_68 0
lam_5_69 0
lam_5_7 0
lam_5_70 0
lam_5_71 0
lam_5_72 0
lam_5_73 0
lam_5_74 0
lam_5_75 0
lam_5_76 0
lam_5_77 0
lam_5_78 0
lam_5_79 0
lam_5_8 0
lam_5_80 0
lam_5_81 0
lam_5_82 0
lam_5_83 0
lam_5_84 0
lam_5_85 0
lam_5_86 0
lam_5_87 0
lam_5_88 0
lam_5_89 0
lam_5_9 0
lam_5_90 0
lam_5_91 0
lam_5_92 0
lam_5_93 0
lam_5_94 0
lam_5_95 0
lam_5_96 0
lam_5_97 0
lam_5_98 0
lam_5_99 0
